NAME : XML100_1272_11
DIMENSION : 101
NB_CLUSTERS : 5
CLUSTERING_ALG : KMedoids
CLUSTERING_PARAMS : k(4)
CLUSTERS
1 0
2 1 2 4 5 7 13 17 18 20 21 25 26 29 30 31 50 55 59 60 61 64 66 71 73 86 87 89 91 96 100
3 11 12 15 16 22 32 48 56 65 68 72 75 76 78 80 83 85 98
4 6 24 35 36 37 40 41 54 74 77 81 93 95
5 3 8 9 10 14 19 23 27 28 33 34 38 39 42 43 44 45 46 47 49 51 52 53 57 58 62 63 67 69 70 79 82 84 88 90 92 94 97 99
EOF